5 5
4 70 0 49 3 78 1 11 2 2
2 95 4 27 3 16 1 64 0 66
3 49 0 90 1 16 4 73 2 52
4 73 3 5 2 36 0 7 1 61
2 96 3 29 0 67 4 30 1 40
-1
0 2 4 5
0 1 2 4 5
0 1 3 4 5
0 1 2 5
0 1 2 5
-2
130 214 286
146 181 313 342
64 226 235 414
111 84 229
134 145 285

371 9
11 1 18 22 9
12 8 19 3 24
5 20 17 14 4
10 16 7 21 2
15 0 6 13 23
